outputs/case_327.model.txt
fund_usage_other_approved = False
fund_usage_securities = False
fund_usage_derivative_transactions = False
fund_usage_real_estate = False
financial_or_business_condition_deteriorated = True
risk_management_personnel_qualified = True
fund_usage_insurance_related_business = False
capital_improvement_completed = False
deposit_per_financial_institution_percentage = 20
actuarial_personnel_qualified = False
investment_personnel_qualified = False
underwriting_experience_years = 0
legal_personnel_qualified = False
claims_personnel_qualified = False
risk_management_experience_years = 3
actuarial_experience_years = 0
claims_experience_years = 0
financial_or_business_improvement_completed = True
policy_service_experience_years = 0
fund_usage_foreign_investment = False
policy_service_personnel_qualified = False
capital_level = 1
investment_experience_years = 0
fund_usage_loans = False
deposit_limit_approved_by_authority = True
legal_experience_years = 0
underwriting_personnel_qualified = False
fund_usage_special_approved_projects = True
insurance_product_sales_stopped = False
act_146_deposit_limit_respected = True
internal_handling_system_established = True
act_149_financial_deterioration_and_no_improvement = False
violation_144_145 = False
act_171_1_violation_148_2_penalty = False
act_144_board_approval_obtained = True
qualified_signing_personnel_human_insurance = True
signing_report_fair_and_true = True
derivative_trading_internal_procedures_followed = True
other_necessary_measures_taken = False
signing_actuarial_staff_board_approved = True
act_146_investment_accounting_compliance = True
reserves_calculated_per_insurance_type = True
derivative_trading_limit_respected = True
actuarial_staff_hired = True
act_144_external_review_hired = True
act_171_1_violation_148_2_2_penalty = False
act_171_1_violation_148_3_1_penalty = False
violation_148_1_1_or_2 = False
director_supervisor_dismissal_ordered = False
act_171_violation_144_145_penalty = False
act_144_reports_fair_and_true = True
internal_control_and_audit_system_established = True
violation_148_2_1 = False
violation_144_5_or_144_6_measures = False
act_146_fund_usage_limited = True
external_review_actuarial_staff_board_approved = True
statutory_meeting_resolution_revoked = False
external_review_actuarial_staff_hired = True
violation_148_2_2 = False
act_148_3_internal_control_established = True
investment_accounting_book_managed_per_rules = True
qualified_signing_personnel_property_insurance = True
act_144_actuarial_staff_assigned = True
act_146_7_limitations_defined = True
investment_accounting_book_established = True
derivative_trading_conditions_met = True
reserves_recorded_in_special_books = True
act_148_3_internal_handling_established = True
act_146_derivative_trading_compliance = True
business_restriction_imposed = False
signing_actuarial_staff_assigned = True
external_review_report_fair_and_true = True
act_171_violation_144_5_144_6_penalty = False
act_171_1_violation_148_3_2_penalty = False
insurance_related_business_defined_by_authority = True
act_146_insurance_related_business_defined = True
capital_increase_ordered = False
act_149_violation_penalties = False
act_149_capital_level_severe_and_no_improvement = False
act_171_1_violation_148_1_2_penalty = False
manager_dismissal_ordered = False
penalty = False
regulatory_limits_defined = True
act_145_reserve_calculated_and_recorded = True
derivative_trading_scope_limited = True